25
1 0 4
2 0 8
2 1 6
3 0 1
3 1 1
3 2 4
4 0 1
4 1 7
4 2 9
4 3 7
5 0 6
5 1 5
5 2 9
5 3 9
5 4 10
6 0 8
6 1 8
6 2 1
6 3 5
6 4 5
6 5 5
7 0 4
7 1 9
7 2 6
7 3 8
7 4 6
7 5 9
7 6 2
8 0 7
8 1 1
8 2 8
8 3 1
8 4 3
8 5 3
8 6 7
8 7 9
9 0 3
9 1 4
9 2 6
9 3 2
9 4 4
9 5 7
9 6 4
9 7 3
9 8 10
10 0 4
10 1 9
10 2 8
10 3 1
10 4 1
10 5 8
10 6 9
10 7 5
10 8 6
10 9 3
11 0 3
11 1 7
11 2 9
11 3 8
11 4 8
11 5 1
11 6 6
11 7 8
11 8 10
11 9 7
11 10 7
12 0 2
12 1 10
12 2 4
12 3 9
12 4 3
12 5 4
12 6 9
12 7 8
12 8 9
12 9 4
12 10 1
12 11 3
13 0 1
13 1 2
13 2 2
13 3 1
13 4 7
13 5 2
13 6 6
13 7 9
13 8 8
13 9 10
13 10 9
13 11 8
13 12 4
14 0 3
14 1 8
14 2 9
14 3 4
14 4 3
14 5 9
14 6 1
14 7 10
14 8 1
14 9 10
14 10 6
14 11 8
14 12 2
14 13 1
15 0 1
15 1 3
15 2 5
15 3 3
15 4 8
15 5 7
15 6 2
15 7 7
15 8 2
15 9 10
15 10 6
15 11 1
15 12 5
15 13 5
15 14 1
16 0 10
16 1 6
16 2 6
16 3 9
16 4 3
16 5 7
16 6 9
16 7 2
16 8 9
16 9 7
16 10 5
16 11 1
16 12 7
16 13 10
16 14 8
16 15 5
17 0 6
17 1 8
17 2 2
17 3 8
17 4 1
17 5 4
17 6 9
17 7 9
17 8 6
17 9 6
17 10 2
17 11 2
17 12 1
17 13 8
17 14 2
17 15 9
17 16 9
18 0 1
18 1 6
18 2 9
18 3 5
18 4 7
18 5 9
18 6 2
18 7 4
18 8 10
18 9 2
18 10 6
18 11 3
18 12 1
18 13 4
18 14 8
18 15 5
18 16 5
18 17 7
19 0 9
19 1 7
19 2 10
19 3 9
19 4 9
19 5 8
19 6 3
19 7 7
19 8 4
19 9 10
19 10 9
19 11 1
19 12 10
19 13 5
19 14 2
19 15 3
19 16 5
19 17 7
19 18 9
20 0 2
20 1 1
20 2 7
20 3 1
20 4 6
20 5 2
20 6 7
20 7 9
20 8 5
20 9 4
20 10 6
20 11 6
20 12 5
20 13 3
20 14 6
20 15 7
20 16 7
20 17 3
20 18 5
20 19 6
21 0 10
21 1 5
21 2 8
21 3 3
21 4 4
21 5 3
21 6 9
21 7 3
21 8 4
21 9 1
21 10 7
21 11 9
21 12 2
21 13 10
21 14 6
21 15 3
21 16 5
21 17 4
21 18 3
21 19 3
21 20 2
22 0 2
22 1 2
22 2 6
22 3 1
22 4 2
22 5 8
22 6 7
22 7 1
22 8 7
22 9 5
22 10 6
22 11 5
22 12 1
22 13 6
22 14 4
22 15 5
22 16 2
22 17 10
22 18 7
22 19 4
22 20 6
22 21 5
23 0 2
23 1 3
23 2 1
23 3 4
23 4 2
23 5 3
23 6 2
23 7 4
23 8 4
23 9 6
23 10 4
23 11 8
23 12 7
23 13 5
23 14 1
23 15 4
23 16 3
23 17 4
23 18 10
23 19 10
23 20 10
23 21 7
23 22 3
24 0 1
24 1 9
24 2 10
24 3 2
24 4 6
24 5 1
24 6 3
24 7 9
24 8 3
24 9 4
24 10 10
24 11 5
24 12 5
24 13 4
24 14 5
24 15 1
24 16 2
24 17 10
24 18 5
24 19 8
24 20 4
24 21 9
24 22 6
24 23 1
